\ Model Master problem
\ LP format - for model browsing. Use MPS format to capture full model detail.
Minimize
  0 X_7_6 + 0 X_6_8 + 0 X_7_8 + 0 X_6_10 + 0 X_7_10 + 0 X_6_14 + 0 X_7_14
   + 0 X_6_16 + 0 X_7_16 + 0 X_6_18 + 0 X_7_18 + 0 X_6_22 + 0 X_7_22
   + 0 X_6_24 + 0 X_7_24 + 0 X_6_28 + 0 X_7_28 + 0 X_6_30 + 0 X_7_30
   + 0 Z_0_0_0_1_0 + 0 Z_1_0_0_1_0 + 0 Z_0_1_0_1_0 + 0 Z_1_1_0_1_0
   + 0 Z_0_0_0_0_1 + 0 Z_1_0_0_0_1 + 0 Z_0_1_0_0_1 + 0 Z_1_1_0_0_1
   + 0 Z_0_0_0_2_1 + 0 Z_1_0_0_2_1 + 0 Z_0_1_0_2_1 + 0 Z_1_1_0_2_1
   + 0 Z_0_0_0_1_2 + 0 Z_1_0_0_1_2 + 0 Z_0_1_0_1_2 + 0 Z_1_1_0_1_2
   + 0 Z_0_0_0_3_2 + 0 Z_1_0_0_3_2 + 0 Z_0_1_0_3_2 + 0 Z_1_1_0_3_2
   + 0 Z_0_0_0_2_3 + 0 Z_1_0_0_2_3 + 0 Z_0_1_0_2_3 + 0 Z_1_1_0_2_3 + theta
   + 0 min_var1_0_3
Subject To
 2b[0]: X_0_6 + X_0_8 + X_0_10 + X_0_14 + X_0_16 + X_0_18 + X_0_22 + X_0_24
   + X_0_28 + X_0_30 = 1
 2b[1]: X_1_6 + X_1_8 + X_1_10 + X_1_14 + X_1_16 + X_1_18 + X_1_22 + X_1_24
   + X_1_28 + X_1_30 = 1
 2b[3]: X_3_6 + X_3_8 + X_3_10 + X_3_14 + X_3_16 + X_3_18 + X_3_22 + X_3_24
   + X_3_28 + X_3_30 = 1
 2b[4]: X_4_6 + X_4_8 + X_4_10 + X_4_14 + X_4_16 + X_4_18 + X_4_22 + X_4_24
   + X_4_28 + X_4_30 = 1
 2c[2]: X_2_6 + X_2_8 + X_2_14 + X_2_16 + X_2_22 + X_2_28 = 1
 2c[5]: X_5_6 + X_5_8 + X_5_14 + X_5_16 + X_5_22 + X_5_28 = 1
 2d[7]: X_6_6 = 1
 2e[2,0,7]: X_2_6 + X_0_8 <= 1
 2e[2,0,9]: X_2_8 + X_0_10 <= 1
 2e[2,0,15]: X_2_14 + X_0_16 <= 1
 2e[2,0,17]: X_2_16 + X_0_18 <= 1
 2e[2,0,23]: X_2_22 + X_0_24 <= 1
 2e[2,0,29]: X_2_28 + X_0_30 <= 1
 2e[2,1,7]: X_2_6 + X_1_8 <= 1
 2e[2,1,9]: X_2_8 + X_1_10 <= 1
 2e[2,1,15]: X_2_14 + X_1_16 <= 1
 2e[2,1,17]: X_2_16 + X_1_18 <= 1
 2e[2,1,23]: X_2_22 + X_1_24 <= 1
 2e[2,1,29]: X_2_28 + X_1_30 <= 1
 2e[2,2,7]: X_2_6 + X_2_8 <= 1
 2e[2,2,9]: X_2_8 + X_2_10 <= 1
 2e[2,2,15]: X_2_14 + X_2_16 <= 1
 2e[2,2,17]: X_2_16 + X_2_18 <= 1
 2e[2,2,23]: X_2_22 + X_2_24 <= 1
 2e[2,2,29]: X_2_28 + X_2_30 <= 1
 2e[2,3,7]: X_2_6 + X_3_8 <= 1
 2e[2,3,9]: X_2_8 + X_3_10 <= 1
 2e[2,3,15]: X_2_14 + X_3_16 <= 1
 2e[2,3,17]: X_2_16 + X_3_18 <= 1
 2e[2,3,23]: X_2_22 + X_3_24 <= 1
 2e[2,3,29]: X_2_28 + X_3_30 <= 1
 2e[2,4,7]: X_2_6 + X_4_8 <= 1
 2e[2,4,9]: X_2_8 + X_4_10 <= 1
 2e[2,4,15]: X_2_14 + X_4_16 <= 1
 2e[2,4,17]: X_2_16 + X_4_18 <= 1
 2e[2,4,23]: X_2_22 + X_4_24 <= 1
 2e[2,4,29]: X_2_28 + X_4_30 <= 1
 2e[2,5,7]: X_2_6 + X_5_8 <= 1
 2e[2,5,9]: X_2_8 + X_5_10 <= 1
 2e[2,5,15]: X_2_14 + X_5_16 <= 1
 2e[2,5,17]: X_2_16 + X_5_18 <= 1
 2e[2,5,23]: X_2_22 + X_5_24 <= 1
 2e[2,5,29]: X_2_28 + X_5_30 <= 1
 2e[5,0,7]: X_5_6 + X_0_8 <= 1
 2e[5,0,9]: X_5_8 + X_0_10 <= 1
 2e[5,0,15]: X_5_14 + X_0_16 <= 1
 2e[5,0,17]: X_5_16 + X_0_18 <= 1
 2e[5,0,23]: X_5_22 + X_0_24 <= 1
 2e[5,0,29]: X_5_28 + X_0_30 <= 1
 2e[5,1,7]: X_5_6 + X_1_8 <= 1
 2e[5,1,9]: X_5_8 + X_1_10 <= 1
 2e[5,1,15]: X_5_14 + X_1_16 <= 1
 2e[5,1,17]: X_5_16 + X_1_18 <= 1
 2e[5,1,23]: X_5_22 + X_1_24 <= 1
 2e[5,1,29]: X_5_28 + X_1_30 <= 1
 2e[5,2,7]: X_5_6 + X_2_8 <= 1
 2e[5,2,9]: X_5_8 + X_2_10 <= 1
 2e[5,2,15]: X_5_14 + X_2_16 <= 1
 2e[5,2,17]: X_5_16 + X_2_18 <= 1
 2e[5,2,23]: X_5_22 + X_2_24 <= 1
 2e[5,2,29]: X_5_28 + X_2_30 <= 1
 2e[5,3,7]: X_5_6 + X_3_8 <= 1
 2e[5,3,9]: X_5_8 + X_3_10 <= 1
 2e[5,3,15]: X_5_14 + X_3_16 <= 1
 2e[5,3,17]: X_5_16 + X_3_18 <= 1
 2e[5,3,23]: X_5_22 + X_3_24 <= 1
 2e[5,3,29]: X_5_28 + X_3_30 <= 1
 2e[5,4,7]: X_5_6 + X_4_8 <= 1
 2e[5,4,9]: X_5_8 + X_4_10 <= 1
 2e[5,4,15]: X_5_14 + X_4_16 <= 1
 2e[5,4,17]: X_5_16 + X_4_18 <= 1
 2e[5,4,23]: X_5_22 + X_4_24 <= 1
 2e[5,4,29]: X_5_28 + X_4_30 <= 1
 2e[5,5,7]: X_5_6 + X_5_8 <= 1
 2e[5,5,9]: X_5_8 + X_5_10 <= 1
 2e[5,5,15]: X_5_14 + X_5_16 <= 1
 2e[5,5,17]: X_5_16 + X_5_18 <= 1
 2e[5,5,23]: X_5_22 + X_5_24 <= 1
 2e[5,5,29]: X_5_28 + X_5_30 <= 1
 2f[7]: X_0_6 + X_1_6 + X_2_6 + X_3_6 + X_4_6 + X_5_6 <= 2
 2f[9]: X_0_8 + X_1_8 + X_2_8 + X_3_8 + X_4_8 + X_5_8 <= 2
 2f[11]: X_0_10 + X_1_10 + X_2_10 + X_3_10 + X_4_10 + X_5_10 <= 2
 2f[15]: X_0_14 + X_1_14 + X_2_14 + X_3_14 + X_4_14 + X_5_14 <= 2
 2f[17]: X_0_16 + X_1_16 + X_2_16 + X_3_16 + X_4_16 + X_5_16 <= 2
 2f[19]: X_0_18 + X_1_18 + X_2_18 + X_3_18 + X_4_18 + X_5_18 <= 2
 2f[23]: X_0_22 + X_1_22 + X_2_22 + X_3_22 + X_4_22 + X_5_22 <= 2
 2f[25]: X_0_24 + X_1_24 + X_2_24 + X_3_24 + X_4_24 + X_5_24 <= 2
 2f[29]: X_0_28 + X_1_28 + X_2_28 + X_3_28 + X_4_28 + X_5_28 <= 2
 2f[31]: X_0_30 + X_1_30 + X_2_30 + X_3_30 + X_4_30 + X_5_30 <= 2
 2g[7,0,2]: X_0_6 + X_2_6 <= 1
 2g[7,0,5]: X_0_6 + X_5_6 <= 1
 2g[7,1,2]: X_1_6 + X_2_6 <= 1
 2g[7,1,5]: X_1_6 + X_5_6 <= 1
 2g[7,3,2]: X_2_6 + X_3_6 <= 1
 2g[7,3,5]: X_3_6 + X_5_6 <= 1
 2g[7,4,2]: X_2_6 + X_4_6 <= 1
 2g[7,4,5]: X_4_6 + X_5_6 <= 1
 2g[9,0,2]: X_0_8 + X_2_8 <= 1
 2g[9,0,5]: X_0_8 + X_5_8 <= 1
 2g[9,1,2]: X_1_8 + X_2_8 <= 1
 2g[9,1,5]: X_1_8 + X_5_8 <= 1
 2g[9,3,2]: X_2_8 + X_3_8 <= 1
 2g[9,3,5]: X_3_8 + X_5_8 <= 1
 2g[9,4,2]: X_2_8 + X_4_8 <= 1
 2g[9,4,5]: X_4_8 + X_5_8 <= 1
 2g[11,0,2]: X_0_10 + X_2_10 <= 1
 2g[11,0,5]: X_0_10 + X_5_10 <= 1
 2g[11,1,2]: X_1_10 + X_2_10 <= 1
 2g[11,1,5]: X_1_10 + X_5_10 <= 1
 2g[11,3,2]: X_2_10 + X_3_10 <= 1
 2g[11,3,5]: X_3_10 + X_5_10 <= 1
 2g[11,4,2]: X_2_10 + X_4_10 <= 1
 2g[11,4,5]: X_4_10 + X_5_10 <= 1
 2g[15,0,2]: X_0_14 + X_2_14 <= 1
 2g[15,0,5]: X_0_14 + X_5_14 <= 1
 2g[15,1,2]: X_1_14 + X_2_14 <= 1
 2g[15,1,5]: X_1_14 + X_5_14 <= 1
 2g[15,3,2]: X_2_14 + X_3_14 <= 1
 2g[15,3,5]: X_3_14 + X_5_14 <= 1
 2g[15,4,2]: X_2_14 + X_4_14 <= 1
 2g[15,4,5]: X_4_14 + X_5_14 <= 1
 2g[17,0,2]: X_0_16 + X_2_16 <= 1
 2g[17,0,5]: X_0_16 + X_5_16 <= 1
 2g[17,1,2]: X_1_16 + X_2_16 <= 1
 2g[17,1,5]: X_1_16 + X_5_16 <= 1
 2g[17,3,2]: X_2_16 + X_3_16 <= 1
 2g[17,3,5]: X_3_16 + X_5_16 <= 1
 2g[17,4,2]: X_2_16 + X_4_16 <= 1
 2g[17,4,5]: X_4_16 + X_5_16 <= 1
 2g[19,0,2]: X_0_18 + X_2_18 <= 1
 2g[19,0,5]: X_0_18 + X_5_18 <= 1
 2g[19,1,2]: X_1_18 + X_2_18 <= 1
 2g[19,1,5]: X_1_18 + X_5_18 <= 1
 2g[19,3,2]: X_2_18 + X_3_18 <= 1
 2g[19,3,5]: X_3_18 + X_5_18 <= 1
 2g[19,4,2]: X_2_18 + X_4_18 <= 1
 2g[19,4,5]: X_4_18 + X_5_18 <= 1
 2g[23,0,2]: X_0_22 + X_2_22 <= 1
 2g[23,0,5]: X_0_22 + X_5_22 <= 1
 2g[23,1,2]: X_1_22 + X_2_22 <= 1
 2g[23,1,5]: X_1_22 + X_5_22 <= 1
 2g[23,3,2]: X_2_22 + X_3_22 <= 1
 2g[23,3,5]: X_3_22 + X_5_22 <= 1
 2g[23,4,2]: X_2_22 + X_4_22 <= 1
 2g[23,4,5]: X_4_22 + X_5_22 <= 1
 2g[25,0,2]: X_0_24 + X_2_24 <= 1
 2g[25,0,5]: X_0_24 + X_5_24 <= 1
 2g[25,1,2]: X_1_24 + X_2_24 <= 1
 2g[25,1,5]: X_1_24 + X_5_24 <= 1
 2g[25,3,2]: X_2_24 + X_3_24 <= 1
 2g[25,3,5]: X_3_24 + X_5_24 <= 1
 2g[25,4,2]: X_2_24 + X_4_24 <= 1
 2g[25,4,5]: X_4_24 + X_5_24 <= 1
 2g[29,0,2]: X_0_28 + X_2_28 <= 1
 2g[29,0,5]: X_0_28 + X_5_28 <= 1
 2g[29,1,2]: X_1_28 + X_2_28 <= 1
 2g[29,1,5]: X_1_28 + X_5_28 <= 1
 2g[29,3,2]: X_2_28 + X_3_28 <= 1
 2g[29,3,5]: X_3_28 + X_5_28 <= 1
 2g[29,4,2]: X_2_28 + X_4_28 <= 1
 2g[29,4,5]: X_4_28 + X_5_28 <= 1
 2g[31,0,2]: X_0_30 + X_2_30 <= 1
 2g[31,0,5]: X_0_30 + X_5_30 <= 1
 2g[31,1,2]: X_1_30 + X_2_30 <= 1
 2g[31,1,5]: X_1_30 + X_5_30 <= 1
 2g[31,3,2]: X_2_30 + X_3_30 <= 1
 2g[31,3,5]: X_3_30 + X_5_30 <= 1
 2g[31,4,2]: X_2_30 + X_4_30 <= 1
 2g[31,4,5]: X_4_30 + X_5_30 <= 1
 2h[7]: 12 X_0_6 + 3 X_1_6 + 3 X_2_6 + 12 X_3_6 + 4 X_4_6 + 3 X_5_6 <= 12
 2h[9]: 12 X_0_8 + 3 X_1_8 + 3 X_2_8 + 12 X_3_8 + 4 X_4_8 + 3 X_5_8 <= 12
 2h[11]: 12 X_0_10 + 3 X_1_10 + 3 X_2_10 + 12 X_3_10 + 4 X_4_10 + 3 X_5_10
   <= 12
 2h[15]: 12 X_0_14 + 3 X_1_14 + 3 X_2_14 + 12 X_3_14 + 4 X_4_14 + 3 X_5_14
   <= 12
 2h[17]: 12 X_0_16 + 3 X_1_16 + 3 X_2_16 + 12 X_3_16 + 4 X_4_16 + 3 X_5_16
   <= 12
 2h[19]: 12 X_0_18 + 3 X_1_18 + 3 X_2_18 + 12 X_3_18 + 4 X_4_18 + 3 X_5_18
   <= 12
 2h[23]: 12 X_0_22 + 3 X_1_22 + 3 X_2_22 + 12 X_3_22 + 4 X_4_22 + 3 X_5_22
   <= 12
 2h[25]: 12 X_0_24 + 3 X_1_24 + 3 X_2_24 + 12 X_3_24 + 4 X_4_24 + 3 X_5_24
   <= 12
 2h[29]: 12 X_0_28 + 3 X_1_28 + 3 X_2_28 + 12 X_3_28 + 4 X_4_28 + 3 X_5_28
   <= 12
 2h[31]: 12 X_0_30 + 3 X_1_30 + 3 X_2_30 + 12 X_3_30 + 4 X_4_30 + 3 X_5_30
   <= 12
 tmpp_var[0,0]: - 7 X_0_6 - 9 X_0_8 - 11 X_0_10 - 15 X_0_14 - 17 X_0_16
   - 19 X_0_18 - 23 X_0_22 - 25 X_0_24 - 29 X_0_28 - 31 X_0_30 + tmpp_var00
   = 0
 tmpp_var[0,1]: - 7 X_1_6 - 9 X_1_8 - 11 X_1_10 - 15 X_1_14 - 17 X_1_16
   - 19 X_1_18 - 23 X_1_22 - 25 X_1_24 - 29 X_1_28 - 31 X_1_30 + tmpp_var10
   = 0
 tmpp_var[0,2]: - 7 X_2_6 - 9 X_2_8 - 11 X_2_10 - 15 X_2_14 - 17 X_2_16
   - 19 X_2_18 - 23 X_2_22 - 25 X_2_24 - 29 X_2_28 - 31 X_2_30 + tmpp_var20
   = 0
 tmpp_var[0,3]: - 7 X_3_6 - 9 X_3_8 - 11 X_3_10 - 15 X_3_14 - 17 X_3_16
   - 19 X_3_18 - 23 X_3_22 - 25 X_3_24 - 29 X_3_28 - 31 X_3_30 + tmpp_var30
   = 0
 tmpp_var[0,4]: - 7 X_4_6 - 9 X_4_8 - 11 X_4_10 - 15 X_4_14 - 17 X_4_16
   - 19 X_4_18 - 23 X_4_22 - 25 X_4_24 - 29 X_4_28 - 31 X_4_30 + tmpp_var40
   = 0
 tmpp_var[0,5]: - 7 X_5_6 - 9 X_5_8 - 11 X_5_10 - 15 X_5_14 - 17 X_5_16
   - 19 X_5_18 - 23 X_5_22 - 25 X_5_24 - 29 X_5_28 - 31 X_5_30 + tmpp_var50
   = 0
 2l[0,0,0,1,0]: - 6 theta_0_0_0 + 6 theta_1_0_1 + ZP_0_0_0_0_1 = 0
 2l[0,0,1,0,0]: - 6 theta_0_0_1 + 6 theta_1_0_0 + ZP_0_0_0_1_0 = 0
 2l[0,0,1,2,0]: - 6 theta_0_0_1 + 6 theta_1_0_2 + ZP_0_0_0_1_2 = 0
 2l[0,0,2,1,0]: - 6 theta_0_0_2 + 6 theta_1_0_1 + ZP_0_0_0_2_1 = 0
 2l[0,0,2,3,0]: - 6 theta_0_0_2 + 6 theta_1_0_3 + ZP_0_0_0_2_3 = 0
 2l[0,0,3,2,0]: - 6 theta_0_0_3 + 6 theta_1_0_2 + ZP_0_0_0_3_2 = 0
 2l[0,1,0,1,0]: - 6 theta_0_0_0 + 6 theta_0_0_1 + ZP_0_1_0_0_1 = 0
 2l[0,1,1,0,0]: 6 theta_0_0_0 - 6 theta_0_0_1 + ZP_0_1_0_1_0 = 0
 2l[0,1,1,2,0]: - 6 theta_0_0_1 + 6 theta_0_0_2 + ZP_0_1_0_1_2 = 0
 2l[0,1,2,1,0]: 6 theta_0_0_1 - 6 theta_0_0_2 + ZP_0_1_0_2_1 = 0
 2l[0,1,2,3,0]: - 6 theta_0_0_2 + 6 theta_0_0_3 + ZP_0_1_0_2_3 = 0
 2l[0,1,3,2,0]: 6 theta_0_0_2 - 6 theta_0_0_3 + ZP_0_1_0_3_2 = 0
 2l[1,0,0,1,0]: - 6 theta_1_0_0 + 6 theta_1_0_1 + ZP_1_0_0_0_1 = 0
 2l[1,0,1,0,0]: 6 theta_1_0_0 - 6 theta_1_0_1 + ZP_1_0_0_1_0 = 0
 2l[1,0,1,2,0]: - 6 theta_1_0_1 + 6 theta_1_0_2 + ZP_1_0_0_1_2 = 0
 2l[1,0,2,1,0]: 6 theta_1_0_1 - 6 theta_1_0_2 + ZP_1_0_0_2_1 = 0
 2l[1,0,2,3,0]: - 6 theta_1_0_2 + 6 theta_1_0_3 + ZP_1_0_0_2_3 = 0
 2l[1,0,3,2,0]: 6 theta_1_0_2 - 6 theta_1_0_3 + ZP_1_0_0_3_2 = 0
 2l[1,1,0,1,0]: 6 theta_0_0_1 - 6 theta_1_0_0 + ZP_1_1_0_0_1 = 0
 2l[1,1,1,0,0]: 6 theta_0_0_0 - 6 theta_1_0_1 + ZP_1_1_0_1_0 = 0
 2l[1,1,1,2,0]: 6 theta_0_0_2 - 6 theta_1_0_1 + ZP_1_1_0_1_2 = 0
 2l[1,1,2,1,0]: 6 theta_0_0_1 - 6 theta_1_0_2 + ZP_1_1_0_2_1 = 0
 2l[1,1,2,3,0]: 6 theta_0_0_3 - 6 theta_1_0_2 + ZP_1_1_0_2_3 = 0
 2l[1,1,3,2,0]: 6 theta_0_0_2 - 6 theta_1_0_3 + ZP_1_1_0_3_2 = 0
 2n[0,0]: - 720 X_0_6 - 180 X_1_6 - 720 X_0_8 - 180 X_1_8 - 720 X_0_10
   - 180 X_1_10 - 720 X_0_14 - 180 X_1_14 - 720 X_0_16 - 180 X_1_16
   - 720 X_0_18 - 180 X_1_18 - 720 X_0_22 - 180 X_1_22 - 720 X_0_24
   - 180 X_1_24 - 720 X_0_28 - 180 X_1_28 - 720 X_0_30 - 180 X_1_30
   + 6 theta_0_0_0 - 6 theta_1_0_0 + eta_0_0 = 0
 2n[0,1]: - 180 X_2_6 - 180 X_2_8 - 180 X_2_10 - 180 X_2_14 - 180 X_2_16
   - 180 X_2_18 - 180 X_2_22 - 180 X_2_24 - 180 X_2_28 - 180 X_2_30
   + 6 theta_0_0_1 - 6 theta_1_0_1 + eta_0_1 = 0
 2n[0,2]: - 720 X_3_6 - 240 X_4_6 - 720 X_3_8 - 240 X_4_8 - 720 X_3_10
   - 240 X_4_10 - 720 X_3_14 - 240 X_4_14 - 720 X_3_16 - 240 X_4_16
   - 720 X_3_18 - 240 X_4_18 - 720 X_3_22 - 240 X_4_22 - 720 X_3_24
   - 240 X_4_24 - 720 X_3_28 - 240 X_4_28 - 720 X_3_30 - 240 X_4_30
   + 6 theta_0_0_2 - 6 theta_1_0_2 + eta_0_2 = 0
 2n[0,3]: - 180 X_5_6 - 180 X_5_8 - 180 X_5_10 - 180 X_5_14 - 180 X_5_16
   - 180 X_5_18 - 180 X_5_22 - 180 X_5_24 - 180 X_5_28 - 180 X_5_30
   + 6 theta_0_0_3 - 6 theta_1_0_3 + eta_0_3 = 0
 global_lb1[0]: - 720 X_0_6 - 180 X_1_6 - 180 X_2_6 - 720 X_3_6 - 240 X_4_6
   - 180 X_5_6 - 720 X_0_8 - 180 X_1_8 - 180 X_2_8 - 720 X_3_8 - 240 X_4_8
   - 180 X_5_8 - 720 X_0_10 - 180 X_1_10 - 180 X_2_10 - 720 X_3_10
   - 240 X_4_10 - 180 X_5_10 - 720 X_0_14 - 180 X_1_14 - 180 X_2_14
   - 720 X_3_14 - 240 X_4_14 - 180 X_5_14 - 720 X_0_16 - 180 X_1_16
   - 180 X_2_16 - 720 X_3_16 - 240 X_4_16 - 180 X_5_16 - 720 X_0_18
   - 180 X_1_18 - 180 X_2_18 - 720 X_3_18 - 240 X_4_18 - 180 X_5_18
   - 720 X_0_22 - 180 X_1_22 - 180 X_2_22 - 720 X_3_22 - 240 X_4_22
   - 180 X_5_22 - 720 X_0_24 - 180 X_1_24 - 180 X_2_24 - 720 X_3_24
   - 240 X_4_24 - 180 X_5_24 - 720 X_0_28 - 180 X_1_28 - 180 X_2_28
   - 720 X_3_28 - 240 X_4_28 - 180 X_5_28 - 720 X_0_30 - 180 X_1_30
   - 180 X_2_30 - 720 X_3_30 - 240 X_4_30 - 180 X_5_30 + 6 theta_0_0_0
   + 6 theta_0_0_1 + 6 theta_0_0_2 + 6 theta_0_0_3 - 6 theta_1_0_0
   - 6 theta_1_0_1 - 6 theta_1_0_2 - 6 theta_1_0_3 + theta - 6 AA0 >= -42
 global_lb2[0]: - 720 X_0_6 - 180 X_1_6 - 180 X_2_6 - 720 X_3_6 - 240 X_4_6
   - 180 X_5_6 - 720 X_0_8 - 180 X_1_8 - 180 X_2_8 - 720 X_3_8 - 240 X_4_8
   - 180 X_5_8 - 720 X_0_10 - 180 X_1_10 - 180 X_2_10 - 720 X_3_10
   - 240 X_4_10 - 180 X_5_10 - 720 X_0_14 - 180 X_1_14 - 180 X_2_14
   - 720 X_3_14 - 240 X_4_14 - 180 X_5_14 - 720 X_0_16 - 180 X_1_16
   - 180 X_2_16 - 720 X_3_16 - 240 X_4_16 - 180 X_5_16 - 720 X_0_18
   - 180 X_1_18 - 180 X_2_18 - 720 X_3_18 - 240 X_4_18 - 180 X_5_18
   - 720 X_0_22 - 180 X_1_22 - 180 X_2_22 - 720 X_3_22 - 240 X_4_22
   - 180 X_5_22 - 720 X_0_24 - 180 X_1_24 - 180 X_2_24 - 720 X_3_24
   - 240 X_4_24 - 180 X_5_24 - 720 X_0_28 - 180 X_1_28 - 180 X_2_28
   - 720 X_3_28 - 240 X_4_28 - 180 X_5_28 - 720 X_0_30 - 180 X_1_30
   - 180 X_2_30 - 720 X_3_30 - 240 X_4_30 - 180 X_5_30 + theta - 6 BB0
   >= -42
 global_lb3[0]: - 720 X_0_6 - 180 X_1_6 - 180 X_2_6 - 720 X_3_6 - 240 X_4_6
   - 180 X_5_6 - 720 X_0_8 - 180 X_1_8 - 180 X_2_8 - 720 X_3_8 - 240 X_4_8
   - 180 X_5_8 - 720 X_0_10 - 180 X_1_10 - 180 X_2_10 - 720 X_3_10
   - 240 X_4_10 - 180 X_5_10 - 720 X_0_14 - 180 X_1_14 - 180 X_2_14
   - 720 X_3_14 - 240 X_4_14 - 180 X_5_14 - 720 X_0_16 - 180 X_1_16
   - 180 X_2_16 - 720 X_3_16 - 240 X_4_16 - 180 X_5_16 - 720 X_0_18
   - 180 X_1_18 - 180 X_2_18 - 720 X_3_18 - 240 X_4_18 - 180 X_5_18
   - 720 X_0_22 - 180 X_1_22 - 180 X_2_22 - 720 X_3_22 - 240 X_4_22
   - 180 X_5_22 - 720 X_0_24 - 180 X_1_24 - 180 X_2_24 - 720 X_3_24
   - 240 X_4_24 - 180 X_5_24 - 720 X_0_28 - 180 X_1_28 - 180 X_2_28
   - 720 X_3_28 - 240 X_4_28 - 180 X_5_28 - 720 X_0_30 - 180 X_1_30
   - 180 X_2_30 - 720 X_3_30 - 240 X_4_30 - 180 X_5_30 + 6 theta_0_0_0
   + 6 theta_0_0_1 + 6 theta_0_0_2 + 6 theta_0_0_3 - 6 theta_1_0_0
   - 6 theta_1_0_1 - 6 theta_1_0_2 - 6 theta_1_0_3 + theta - 6 AA0
   - min_var1_0_0 - min_var1_0_1 - min_var1_0_2 >= -42
 opt_cut: - 2508 X_5_6 - 2508 X_4_10 - 2508 X_3_14 - 2508 X_2_16
   - 2508 X_0_22 - 2508 X_1_24 + theta >= -12540
 opt_cut: - 2508 X_5_6 - 2508 X_3_10 - 2508 X_4_14 - 2508 X_2_16
   - 2508 X_0_22 - 2508 X_1_24 + theta >= -12540
 opt_cut: - 2508 X_5_6 - 2508 X_4_10 - 2508 X_3_14 - 2508 X_2_16
   - 2508 X_1_22 - 2508 X_0_24 + theta >= -12540
 opt_cut: - 2508 X_5_6 - 2508 X_3_10 - 2508 X_4_14 - 2508 X_2_16
   - 2508 X_1_22 - 2508 X_0_24 + theta >= -12540
 opt_cut: - 2400 X_0_6 - 2400 X_1_8 - 2400 X_4_8 - 2400 X_3_10
   - 2400 X_2_14 - 2400 X_5_14 + theta >= -12000
 opt_cut: - 2436 X_1_6 - 2436 X_0_8 - 2436 X_3_10 - 2436 X_4_14
   - 2436 X_2_16 - 2436 X_5_16 + theta >= -12180
 opt_cut: - 2484 X_5_6 - 2484 X_3_10 - 2484 X_1_14 - 2484 X_4_14
   - 2484 X_2_16 - 2484 X_0_22 + theta >= -12420
 opt_cut: - 2436 X_0_6 - 2436 X_1_8 - 2436 X_3_10 - 2436 X_4_14
   - 2436 X_2_16 - 2436 X_5_16 + theta >= -12180
 opt_cut: - 2436 X_1_6 - 2436 X_0_8 - 2436 X_4_10 - 2436 X_3_14
   - 2436 X_2_16 - 2436 X_5_16 + theta >= -12180
 opt_cut: - 2436 X_0_6 - 2436 X_1_8 - 2436 X_4_10 - 2436 X_3_14
   - 2436 X_2_16 - 2436 X_5_16 + theta >= -12180
 opt_cut: - 2412 X_0_8 - 2412 X_1_10 - 2412 X_4_10 - 2412 X_3_14
   - 2412 X_2_16 - 2412 X_5_16 + theta >= -12060
 opt_cut: - 2436 X_2_6 - 2436 X_5_6 - 2436 X_1_10 - 2436 X_4_10
   - 2436 X_0_14 - 2436 X_3_16 + theta >= -12180
 opt_cut: - 2400 X_0_6 - 2400 X_3_8 - 2400 X_1_10 - 2400 X_4_10
   - 2400 X_2_14 - 2400 X_5_14 + theta >= -12000
 opt_cut: - 2436 X_2_6 - 2436 X_5_6 - 2436 X_1_10 - 2436 X_4_10
   - 2436 X_3_14 - 2436 X_0_16 + theta >= -12180
 opt_cut: - 2460 X_0_6 - 2460 X_1_8 - 2460 X_2_14 - 2460 X_5_14
   - 2460 X_3_18 - 2460 X_4_22 + theta >= -12300
 opt_cut: - 2388 X_3_6 - 2388 X_1_8 - 2388 X_4_8 - 2388 X_0_10
   - 2388 X_2_14 - 2388 X_5_14 + theta >= -11940
 opt_cut: - 2412 X_1_6 - 2412 X_4_6 - 2412 X_0_8 - 2412 X_3_10
   - 2412 X_2_14 - 2412 X_5_14 + theta >= -12060
 opt_cut: - 2388 X_3_6 - 2388 X_0_8 - 2388 X_1_10 - 2388 X_4_10
   - 2388 X_2_14 - 2388 X_5_14 + theta >= -11940
 opt_cut: - 2436 X_2_6 - 2436 X_5_6 - 2436 X_3_10 - 2436 X_1_14
   - 2436 X_4_14 - 2436 X_0_16 + theta >= -12180
 opt_cut: - 2508 X_5_6 - 2508 X_3_10 - 2508 X_4_14 - 2508 X_0_16
   - 2508 X_1_18 - 2508 X_2_22 + theta >= -12540
 opt_cut: - 2508 X_5_6 - 2508 X_3_10 - 2508 X_1_14 - 2508 X_4_14
   - 2508 X_2_16 - 2508 X_0_24 + theta >= -12540
 opt_cut: - 2436 X_4_8 - 2436 X_3_10 - 2436 X_2_14 - 2436 X_5_14
   - 2436 X_1_18 - 2436 X_0_22 + theta >= -12180
 opt_cut: - 2460 X_1_6 - 2460 X_0_8 - 2460 X_2_14 - 2460 X_5_14
   - 2460 X_4_18 - 2460 X_3_22 + theta >= -12300
 opt_cut: - 2424 X_3_6 - 2424 X_2_8 - 2424 X_5_8 - 2424 X_1_14
   - 2424 X_4_14 - 2424 X_0_16 + theta >= -12120
 opt_cut: - 2460 X_1_6 - 2460 X_0_8 - 2460 X_2_14 - 2460 X_5_14
   - 2460 X_3_18 - 2460 X_4_22 + theta >= -12300
 opt_cut: - 2556 X_5_6 - 2556 X_4_10 - 2556 X_3_14 - 2556 X_2_16
   - 2556 X_0_24 - 2556 X_1_28 + theta >= -12780
 opt_cut: - 2436 X_0_6 - 2436 X_1_10 - 2436 X_4_10 - 2436 X_3_14
   - 2436 X_2_16 - 2436 X_5_16 + theta >= -12180
 opt_cut: - 2508 X_5_6 - 2508 X_4_10 - 2508 X_3_14 - 2508 X_1_16
   - 2508 X_0_18 - 2508 X_2_22 + theta >= -12540
 opt_cut: - 2436 X_1_8 - 2436 X_0_10 - 2436 X_2_14 - 2436 X_5_14
   - 2436 X_4_18 - 2436 X_3_22 + theta >= -12180
 opt_cut: - 2436 X_4_8 - 2436 X_3_10 - 2436 X_2_14 - 2436 X_5_14
   - 2436 X_0_18 - 2436 X_1_22 + theta >= -12180
 opt_cut: - 2436 X_1_8 - 2436 X_0_10 - 2436 X_2_14 - 2436 X_5_14
   - 2436 X_3_18 - 2436 X_4_22 + theta >= -12180
 opt_cut: - 2448 X_0_6 - 2448 X_1_8 - 2448 X_4_8 - 2448 X_3_14
   - 2448 X_2_16 - 2448 X_5_16 + theta >= -12240
 opt_cut: - 2424 X_1_8 - 2424 X_4_8 - 2424 X_0_10 - 2424 X_3_14
   - 2424 X_2_16 - 2424 X_5_16 + theta >= -12120
 opt_cut: - 2544 X_4_6 - 2544 X_5_8 - 2544 X_3_14 - 2544 X_2_16
   - 2544 X_0_22 - 2544 X_1_24 + theta >= -12720
 opt_cut: - 2508 X_5_6 - 2508 X_4_10 - 2508 X_3_14 - 2508 X_0_16
   - 2508 X_1_18 - 2508 X_2_22 + theta >= -12540
 opt_cut: - 2556 X_5_6 - 2556 X_4_10 - 2556 X_3_14 - 2556 X_2_16
   - 2556 X_1_22 - 2556 X_0_28 + theta >= -12780
 opt_cut: - 2460 X_0_6 - 2460 X_1_8 - 2460 X_2_14 - 2460 X_5_14
   - 2460 X_4_18 - 2460 X_3_22 + theta >= -12300
 opt_cut: - 2508 X_5_6 - 2508 X_3_10 - 2508 X_4_14 - 2508 X_1_16
   - 2508 X_0_18 - 2508 X_2_22 + theta >= -12540
 opt_cut: - 2436 X_0_8 - 2436 X_1_10 - 2436 X_2_14 - 2436 X_5_14
   - 2436 X_4_18 - 2436 X_3_22 + theta >= -12180
 opt_cut: - 2544 X_3_6 - 2544 X_5_8 - 2544 X_4_14 - 2544 X_2_16
   - 2544 X_1_22 - 2544 X_0_24 + theta >= -12720
 opt_cut: - 2460 X_5_8 - 2460 X_3_14 - 2460 X_0_16 - 2460 X_1_18
   - 2460 X_4_18 - 2460 X_2_22 + theta >= -12300
 opt_cut: - 2544 X_3_6 - 2544 X_5_8 - 2544 X_4_14 - 2544 X_2_16
   - 2544 X_0_22 - 2544 X_1_24 + theta >= -12720
 opt_cut: - 2556 X_5_6 - 2556 X_3_10 - 2556 X_4_14 - 2556 X_2_16
   - 2556 X_1_22 - 2556 X_0_28 + theta >= -12780
 opt_cut: - 2508 X_5_6 - 2508 X_3_10 - 2508 X_1_16 - 2508 X_4_16
   - 2508 X_0_18 - 2508 X_2_22 + theta >= -12540
 opt_cut: - 2436 X_3_8 - 2436 X_4_10 - 2436 X_2_14 - 2436 X_5_14
   - 2436 X_1_18 - 2436 X_0_22 + theta >= -12180
 opt_cut: - 2556 X_5_6 - 2556 X_3_10 - 2556 X_4_14 - 2556 X_2_16
   - 2556 X_1_24 - 2556 X_0_28 + theta >= -12780
 opt_cut: - 2508 X_5_6 - 2508 X_3_10 - 2508 X_0_16 - 2508 X_1_18
   - 2508 X_4_18 - 2508 X_2_22 + theta >= -12540
 opt_cut: - 2544 X_4_6 - 2544 X_5_8 - 2544 X_3_14 - 2544 X_2_16
   - 2544 X_1_22 - 2544 X_0_24 + theta >= -12720
 opt_cut: - 2448 X_5_8 - 2448 X_3_14 - 2448 X_1_16 - 2448 X_4_16
   - 2448 X_0_18 - 2448 X_2_22 + theta >= -12240
 opt_cut: - 2436 X_0_8 - 2436 X_1_10 - 2436 X_2_14 - 2436 X_5_14
   - 2436 X_3_18 - 2436 X_4_22 + theta >= -12180
 opt_cut: - 2436 X_3_8 - 2436 X_4_10 - 2436 X_2_14 - 2436 X_5_14
   - 2436 X_0_18 - 2436 X_1_22 + theta >= -12180
 opt_cut: - 2556 X_5_6 - 2556 X_3_10 - 2556 X_4_14 - 2556 X_2_16
   - 2556 X_0_22 - 2556 X_1_28 + theta >= -12780
 opt_cut: - 2556 X_5_6 - 2556 X_4_10 - 2556 X_3_14 - 2556 X_2_16
   - 2556 X_0_22 - 2556 X_1_28 + theta >= -12780
 opt_cut: - 2556 X_5_6 - 2556 X_4_10 - 2556 X_3_14 - 2556 X_2_16
   - 2556 X_1_24 - 2556 X_0_28 + theta >= -12780
 opt_cut: - 2556 X_5_6 - 2556 X_3_10 - 2556 X_4_14 - 2556 X_2_16
   - 2556 X_0_24 - 2556 X_1_28 + theta >= -12780
 opt_cut: - 2484 X_5_6 - 2484 X_3_14 - 2484 X_0_16 - 2484 X_1_18
   - 2484 X_4_18 - 2484 X_2_22 + theta >= -12420
 opt_cut: - 2472 X_5_6 - 2472 X_3_14 - 2472 X_1_16 - 2472 X_4_16
   - 2472 X_0_18 - 2472 X_2_22 + theta >= -12360
 opt_cut: - 2460 X_3_8 - 2460 X_4_10 - 2460 X_2_14 - 2460 X_5_14
   - 2460 X_0_18 - 2460 X_1_24 + theta >= -12300
Bounds
 ZP_0_0_0_1_0 free
 ZP_1_0_0_1_0 free
 ZP_0_1_0_1_0 free
 ZP_1_1_0_1_0 free
 ZP_0_0_0_0_1 free
 ZP_1_0_0_0_1 free
 ZP_0_1_0_0_1 free
 ZP_1_1_0_0_1 free
 ZP_0_0_0_2_1 free
 ZP_1_0_0_2_1 free
 ZP_0_1_0_2_1 free
 ZP_1_1_0_2_1 free
 ZP_0_0_0_1_2 free
 ZP_1_0_0_1_2 free
 ZP_0_1_0_1_2 free
 ZP_1_1_0_1_2 free
 ZP_0_0_0_3_2 free
 ZP_1_0_0_3_2 free
 ZP_0_1_0_3_2 free
 ZP_1_1_0_3_2 free
 ZP_0_0_0_2_3 free
 ZP_1_0_0_2_3 free
 ZP_0_1_0_2_3 free
 ZP_1_1_0_2_3 free
Binaries
 X_0_6 X_1_6 X_2_6 X_3_6 X_4_6 X_5_6 X_6_6 X_7_6 X_0_8 X_1_8 X_2_8 X_3_8
 X_4_8 X_5_8 X_6_8 X_7_8 X_0_10 X_1_10 X_2_10 X_3_10 X_4_10 X_5_10 X_6_10
 X_7_10 X_0_14 X_1_14 X_2_14 X_3_14 X_4_14 X_5_14 X_6_14 X_7_14 X_0_16
 X_1_16 X_2_16 X_3_16 X_4_16 X_5_16 X_6_16 X_7_16 X_0_18 X_1_18 X_2_18
 X_3_18 X_4_18 X_5_18 X_6_18 X_7_18 X_0_22 X_1_22 X_2_22 X_3_22 X_4_22
 X_5_22 X_6_22 X_7_22 X_0_24 X_1_24 X_2_24 X_3_24 X_4_24 X_5_24 X_6_24
 X_7_24 X_0_28 X_1_28 X_2_28 X_3_28 X_4_28 X_5_28 X_6_28 X_7_28 X_0_30
 X_1_30 X_2_30 X_3_30 X_4_30 X_5_30 X_6_30 X_7_30
General Constraints
 2i[0,0]: theta_0_0_0 = MIN ( tmpp_var00 , tmpp_var10 )
 2i[0,1]: theta_0_0_1 = MIN ( tmpp_var20 )
 2i[0,2]: theta_0_0_2 = MIN ( tmpp_var30 , tmpp_var40 )
 2i[0,3]: theta_0_0_3 = MIN ( tmpp_var50 )
 2k[0,0]: theta_1_0_0 = MAX ( tmpp_var00 , tmpp_var10 )
 2k[0,1]: theta_1_0_1 = MAX ( tmpp_var20 )
 2k[0,2]: theta_1_0_2 = MAX ( tmpp_var30 , tmpp_var40 )
 2k[0,3]: theta_1_0_3 = MAX ( tmpp_var50 )
 2m[0,0,0,1,0]: Z_0_0_0_0_1 = ABS ( ZP_0_0_0_0_1 )
 2m[0,0,1,0,0]: Z_0_0_0_1_0 = ABS ( ZP_0_0_0_1_0 )
 2m[0,0,1,2,0]: Z_0_0_0_1_2 = ABS ( ZP_0_0_0_1_2 )
 2m[0,0,2,1,0]: Z_0_0_0_2_1 = ABS ( ZP_0_0_0_2_1 )
 2m[0,0,2,3,0]: Z_0_0_0_2_3 = ABS ( ZP_0_0_0_2_3 )
 2m[0,0,3,2,0]: Z_0_0_0_3_2 = ABS ( ZP_0_0_0_3_2 )
 2m[0,1,0,1,0]: Z_0_1_0_0_1 = ABS ( ZP_0_1_0_0_1 )
 2m[0,1,1,0,0]: Z_0_1_0_1_0 = ABS ( ZP_0_1_0_1_0 )
 2m[0,1,1,2,0]: Z_0_1_0_1_2 = ABS ( ZP_0_1_0_1_2 )
 2m[0,1,2,1,0]: Z_0_1_0_2_1 = ABS ( ZP_0_1_0_2_1 )
 2m[0,1,2,3,0]: Z_0_1_0_2_3 = ABS ( ZP_0_1_0_2_3 )
 2m[0,1,3,2,0]: Z_0_1_0_3_2 = ABS ( ZP_0_1_0_3_2 )
 2m[1,0,0,1,0]: Z_1_0_0_0_1 = ABS ( ZP_1_0_0_0_1 )
 2m[1,0,1,0,0]: Z_1_0_0_1_0 = ABS ( ZP_1_0_0_1_0 )
 2m[1,0,1,2,0]: Z_1_0_0_1_2 = ABS ( ZP_1_0_0_1_2 )
 2m[1,0,2,1,0]: Z_1_0_0_2_1 = ABS ( ZP_1_0_0_2_1 )
 2m[1,0,2,3,0]: Z_1_0_0_2_3 = ABS ( ZP_1_0_0_2_3 )
 2m[1,0,3,2,0]: Z_1_0_0_3_2 = ABS ( ZP_1_0_0_3_2 )
 2m[1,1,0,1,0]: Z_1_1_0_0_1 = ABS ( ZP_1_1_0_0_1 )
 2m[1,1,1,0,0]: Z_1_1_0_1_0 = ABS ( ZP_1_1_0_1_0 )
 2m[1,1,1,2,0]: Z_1_1_0_1_2 = ABS ( ZP_1_1_0_1_2 )
 2m[1,1,2,1,0]: Z_1_1_0_2_1 = ABS ( ZP_1_1_0_2_1 )
 2m[1,1,2,3,0]: Z_1_1_0_2_3 = ABS ( ZP_1_1_0_2_3 )
 2m[1,1,3,2,0]: Z_1_1_0_3_2 = ABS ( ZP_1_1_0_3_2 )
 BB[0]: AA0 = MIN ( theta_1_0_0 , theta_1_0_1 , theta_1_0_2 , theta_1_0_3 )
 BB[0]: BB0 = MAX ( theta_1_0_0 , theta_1_0_1 , theta_1_0_2 , theta_1_0_3 )
 tmp[0,0]: min_var1_0_0 = MIN ( Z_0_0_0_0_1 , Z_0_1_0_0_1 , Z_1_0_0_0_1 ,
   Z_1_1_0_0_1 )
 tmp[0,1]: min_var1_0_1 = MIN ( Z_0_0_0_1_2 , Z_0_1_0_1_2 , Z_1_0_0_1_2 ,
   Z_1_1_0_1_2 )
 tmp[0,2]: min_var1_0_2 = MIN ( Z_0_0_0_2_3 , Z_0_1_0_2_3 , Z_1_0_0_2_3 ,
   Z_1_1_0_2_3 )
End
